NAME: concorde4
TYPE: TSP
COMMENT: Generated by CCutil_writetsplib
COMMENT: Write called for by Concorde GUI
DIMENSION: 4
EDGE_WEIGHT_TYPE: EUC_2D
NODE_COORD_SECTION
1 38.213449 -85.766968
2 38.244680 -85.757740
3 38.139750 -85.677120
4 38.199370 -85.667840
